(set-logic LIA)
(set-option :produce-models true)
(declare-const X1 Int)
(assert (>= X1 0))
(assert (>= 8 X1))
(declare-const X2 Int)
(assert (>= X2 0))
(assert (>= 8 X2))
(declare-const X3 Int)
(assert (>= X3 (- 6)))
(assert (>= 2 X3))
(declare-const X4 Int)
(assert (>= X4 5))
(assert (>= 13 X4))
(declare-const X5 Int)
(assert (>= X5 0))
(assert (>= 1 X5))
(assert (=(= X5 1)  (= X1 0)))
(declare-const X6 Int)
(assert (>= X6 0))
(assert (>= 1 X6))
(assert (=(= X6 1)  (= X2 8)))
(declare-const X7 Int)
(assert (>= X7 0))
(assert (>= 1 X7))
(assert (=(= X7 1)  (= X3 (- 6))))
(declare-const X8 Int)
(assert (>= X8 0))
(assert (>= 1 X8))
(assert (=(= X8 1)  (= X4 13)))
(assert (>= (+ (- X8) (- X7) (- X6) (- X5)) (- 3)))
(declare-const X9 Int)
(assert (>= X9 0))
(assert (>= 1 X9))
(assert (=(= X9 1)  (= X1 1)))
(declare-const X10 Int)
(assert (>= X10 0))
(assert (>= 1 X10))
(assert (=(= X10 1)  (= X2 7)))
(declare-const X11 Int)
(assert (>= X11 0))
(assert (>= 1 X11))
(assert (=(= X11 1)  (= X3 (- 5))))
(declare-const X12 Int)
(assert (>= X12 0))
(assert (>= 1 X12))
(assert (=(= X12 1)  (= X4 12)))
(assert (>= (+ (- X12) (- X11) (- X10) (- X9)) (- 3)))
(declare-const X13 Int)
(assert (>= X13 0))
(assert (>= 1 X13))
(assert (=(= X13 1)  (= X1 2)))
(declare-const X14 Int)
(assert (>= X14 0))
(assert (>= 1 X14))
(assert (=(= X14 1)  (= X2 6)))
(declare-const X15 Int)
(assert (>= X15 0))
(assert (>= 1 X15))
(assert (=(= X15 1)  (= X3 (- 4))))
(declare-const X16 Int)
(assert (>= X16 0))
(assert (>= 1 X16))
(assert (=(= X16 1)  (= X4 11)))
(assert (>= (+ (- X16) (- X15) (- X14) (- X13)) (- 3)))
(declare-const X17 Int)
(assert (>= X17 0))
(assert (>= 1 X17))
(assert (=(= X17 1)  (= X1 3)))
(declare-const X18 Int)
(assert (>= X18 0))
(assert (>= 1 X18))
(assert (=(= X18 1)  (= X2 5)))
(declare-const X19 Int)
(assert (>= X19 0))
(assert (>= 1 X19))
(assert (=(= X19 1)  (= X3 (- 3))))
(declare-const X20 Int)
(assert (>= X20 0))
(assert (>= 1 X20))
(assert (=(= X20 1)  (= X4 10)))
(assert (>= (+ (- X20) (- X19) (- X18) (- X17)) (- 3)))
(declare-const X21 Int)
(assert (>= X21 0))
(assert (>= 1 X21))
(assert (=(= X21 1)  (= X1 4)))
(declare-const X22 Int)
(assert (>= X22 0))
(assert (>= 1 X22))
(assert (=(= X22 1)  (= X2 4)))
(declare-const X23 Int)
(assert (>= X23 0))
(assert (>= 1 X23))
(assert (=(= X23 1)  (= X3 (- 2))))
(declare-const X24 Int)
(assert (>= X24 0))
(assert (>= 1 X24))
(assert (=(= X24 1)  (= X4 9)))
(assert (>= (+ (- X24) (- X23) (- X22) (- X21)) (- 3)))
(declare-const X25 Int)
(assert (>= X25 0))
(assert (>= 1 X25))
(assert (=(= X25 1)  (= X1 5)))
(declare-const X26 Int)
(assert (>= X26 0))
(assert (>= 1 X26))
(assert (=(= X26 1)  (= X2 3)))
(declare-const X27 Int)
(assert (>= X27 0))
(assert (>= 1 X27))
(assert (=(= X27 1)  (= X3 (- 1))))
(declare-const X28 Int)
(assert (>= X28 0))
(assert (>= 1 X28))
(assert (=(= X28 1)  (= X4 8)))
(assert (>= (+ (- X28) (- X27) (- X26) (- X25)) (- 3)))
(declare-const X29 Int)
(assert (>= X29 0))
(assert (>= 1 X29))
(assert (=(= X29 1)  (= X1 6)))
(declare-const X30 Int)
(assert (>= X30 0))
(assert (>= 1 X30))
(assert (=(= X30 1)  (= X2 2)))
(declare-const X31 Int)
(assert (>= X31 0))
(assert (>= 1 X31))
(assert (=(= X31 1)  (= X3 0)))
(declare-const X32 Int)
(assert (>= X32 0))
(assert (>= 1 X32))
(assert (=(= X32 1)  (= X4 7)))
(assert (>= (+ (- X32) (- X31) (- X30) (- X29)) (- 3)))
(declare-const X33 Int)
(assert (>= X33 0))
(assert (>= 1 X33))
(assert (=(= X33 1)  (= X1 7)))
(declare-const X34 Int)
(assert (>= X34 0))
(assert (>= 1 X34))
(assert (=(= X34 1)  (= X2 1)))
(declare-const X35 Int)
(assert (>= X35 0))
(assert (>= 1 X35))
(assert (=(= X35 1)  (= X3 1)))
(declare-const X36 Int)
(assert (>= X36 0))
(assert (>= 1 X36))
(assert (=(= X36 1)  (= X4 6)))
(assert (>= (+ (- X36) (- X35) (- X34) (- X33)) (- 3)))
(declare-const X37 Int)
(assert (>= X37 0))
(assert (>= 1 X37))
(assert (=(= X37 1)  (= X1 8)))
(declare-const X38 Int)
(assert (>= X38 0))
(assert (>= 1 X38))
(assert (=(= X38 1)  (= X2 0)))
(declare-const X39 Int)
(assert (>= X39 0))
(assert (>= 1 X39))
(assert (=(= X39 1)  (= X3 2)))
(declare-const X40 Int)
(assert (>= X40 0))
(assert (>= 1 X40))
(assert (=(= X40 1)  (= X4 5)))
(assert (>= (+ (- X40) (- X39) (- X38) (- X37)) (- 3)))
(assert (= (+ X1 X2) 8))
(assert (= (+ X1 X4) 13))
(assert (= (+ X3 X4) 7))
(assert (= (+ X2 X3) 2))
(check-sat)
(get-value (X1))
(get-value (X2))
(get-value (X3))
(get-value (X4))
